11
2147483647 67 71 88 78 55 72 95 28 72 100 
67 2147483647 54 4 44 9 31 72 67 2 72 
71 54 2147483647 83 8 60 83 88 44 98 42 
88 4 83 2147483647 54 45 5 23 99 1 99 
78 44 8 54 2147483647 5 58 13 77 99 46 
55 9 60 45 5 2147483647 15 74 98 82 90 
72 31 83 5 58 15 2147483647 90 91 26 61 
95 72 88 23 13 74 90 2147483647 95 71 60 
28 67 44 99 77 98 91 95 2147483647 100 84 
72 2 98 1 99 82 26 71 100 2147483647 6 
100 72 42 99 46 90 61 60 84 6 2147483647 
